data/lp_files/pEFS/105_1.lp
\ Model foo
\ LP format - for model browsing. Use MPS format to capture full model detail.
Minimize
  z
Subject To
 allocateEach[1]: x[1,1] + x[2,1] + x[3,1] + x[4,1] + x[5,1] + x[6,1] = 1
 allocateEach[2]: x[1,2] + x[2,2] + x[3,2] + x[4,2] + x[5,2] + x[6,2] = 1
 allocateEach[3]: x[1,3] + x[2,3] + x[3,3] + x[4,3] + x[5,3] + x[6,3] = 1
 allocateEach[4]: x[1,4] + x[2,4] + x[3,4] + x[4,4] + x[5,4] + x[6,4] = 1
 allocateEach[5]: x[1,5] + x[2,5] + x[3,5] + x[4,5] + x[5,5] + x[6,5] = 1
 allocateAllCash: cashProportion[1] + cashProportion[2] + cashProportion[3]
   + cashProportion[4] + cashProportion[5] + cashProportion[6] = 1
 findWorstP[1,2]: z + 0.0609942055504727 cashProportion[1]
   - 0.0609942055504727 cashProportion[2] + 0.0151875571820677 x[1,1]
   + 0.3025312595303446 x[1,2] + 0.0756938090881366 x[1,3]
   + 0.2181762732540409 x[1,4] + 0.3274168953949375 x[1,5]
   - 0.0151875571820677 x[2,1] - 0.3025312595303446 x[2,2]
   - 0.0756938090881366 x[2,3] - 0.2181762732540409 x[2,4]
   - 0.3274168953949375 x[2,5] >= 0
 findWorstP[1,3]: z + 0.0609942055504727 cashProportion[1]
   - 0.0609942055504727 cashProportion[3] + 0.0151875571820677 x[1,1]
   + 0.3025312595303446 x[1,2] + 0.0756938090881366 x[1,3]
   + 0.2181762732540409 x[1,4] + 0.3274168953949375 x[1,5]
   - 0.0151875571820677 x[3,1] - 0.3025312595303446 x[3,2]
   - 0.0756938090881366 x[3,3] - 0.2181762732540409 x[3,4]
   - 0.3274168953949375 x[3,5] >= 0
 findWorstP[1,4]: z + 0.0609942055504727 cashProportion[1]
   - 0.0609942055504727 cashProportion[4] + 0.0151875571820677 x[1,1]
   + 0.3025312595303446 x[1,2] + 0.0756938090881366 x[1,3]
   + 0.2181762732540409 x[1,4] + 0.3274168953949375 x[1,5]
   - 0.0151875571820677 x[4,1] - 0.3025312595303446 x[4,2]
   - 0.0756938090881366 x[4,3] - 0.2181762732540409 x[4,4]
   - 0.3274168953949375 x[4,5] >= 0
 findWorstP[1,5]: z + 0.0609942055504727 cashProportion[1]
   - 0.0609942055504727 cashProportion[5] + 0.0151875571820677 x[1,1]
   + 0.3025312595303446 x[1,2] + 0.0756938090881366 x[1,3]
   + 0.2181762732540409 x[1,4] + 0.3274168953949375 x[1,5]
   - 0.0151875571820677 x[5,1] - 0.3025312595303446 x[5,2]
   - 0.0756938090881366 x[5,3] - 0.2181762732540409 x[5,4]
   - 0.3274168953949375 x[5,5] >= 0
 findWorstP[1,6]: z + 0.0609942055504727 cashProportion[1]
   - 0.0609942055504727 cashProportion[6] + 0.0151875571820677 x[1,1]
   + 0.3025312595303446 x[1,2] + 0.0756938090881366 x[1,3]
   + 0.2181762732540409 x[1,4] + 0.3274168953949375 x[1,5]
   - 0.0151875571820677 x[6,1] - 0.3025312595303446 x[6,2]
   - 0.0756938090881366 x[6,3] - 0.2181762732540409 x[6,4]
   - 0.3274168953949375 x[6,5] >= 0
 findWorstP[2,1]: z - 0.0391803471378756 cashProportion[1]
   + 0.0391803471378756 cashProportion[2] - 0.0911726677898366 x[1,1]
   - 0.3346785252517337 x[1,2] - 0.0263683736237903 x[1,3]
   - 0.2621948830466638 x[1,4] - 0.2464052031500999 x[1,5]
   + 0.0911726677898366 x[2,1] + 0.3346785252517337 x[2,2]
   + 0.0263683736237903 x[2,3] + 0.2621948830466638 x[2,4]
   + 0.2464052031500999 x[2,5] >= 0
 findWorstP[2,3]: z + 0.0391803471378756 cashProportion[2]
   - 0.0391803471378756 cashProportion[3] + 0.0911726677898366 x[2,1]
   + 0.3346785252517337 x[2,2] + 0.0263683736237903 x[2,3]
   + 0.2621948830466638 x[2,4] + 0.2464052031500999 x[2,5]
   - 0.0911726677898366 x[3,1] - 0.3346785252517337 x[3,2]
   - 0.0263683736237903 x[3,3] - 0.2621948830466638 x[3,4]
   - 0.2464052031500999 x[3,5] >= 0
 findWorstP[2,4]: z + 0.0391803471378756 cashProportion[2]
   - 0.0391803471378756 cashProportion[4] + 0.0911726677898366 x[2,1]
   + 0.3346785252517337 x[2,2] + 0.0263683736237903 x[2,3]
   + 0.2621948830466638 x[2,4] + 0.2464052031500999 x[2,5]
   - 0.0911726677898366 x[4,1] - 0.3346785252517337 x[4,2]
   - 0.0263683736237903 x[4,3] - 0.2621948830466638 x[4,4]
   - 0.2464052031500999 x[4,5] >= 0
 findWorstP[2,5]: z + 0.0391803471378756 cashProportion[2]
   - 0.0391803471378756 cashProportion[5] + 0.0911726677898366 x[2,1]
   + 0.3346785252517337 x[2,2] + 0.0263683736237903 x[2,3]
   + 0.2621948830466638 x[2,4] + 0.2464052031500999 x[2,5]
   - 0.0911726677898366 x[5,1] - 0.3346785252517337 x[5,2]
   - 0.0263683736237903 x[5,3] - 0.2621948830466638 x[5,4]
   - 0.2464052031500999 x[5,5] >= 0
 findWorstP[2,6]: z + 0.0391803471378756 cashProportion[2]
   - 0.0391803471378756 cashProportion[6] + 0.0911726677898366 x[2,1]
   + 0.3346785252517337 x[2,2] + 0.0263683736237903 x[2,3]
   + 0.2621948830466638 x[2,4] + 0.2464052031500999 x[2,5]
   - 0.0911726677898366 x[6,1] - 0.3346785252517337 x[6,2]
   - 0.0263683736237903 x[6,3] - 0.2621948830466638 x[6,4]
   - 0.2464052031500999 x[6,5] >= 0
 findWorstP[3,1]: z - 0.0369603784742756 cashProportion[1]
   + 0.0369603784742756 cashProportion[3] - 0.1411886457717327 x[1,1]
   - 0.2137788290952099 x[1,2] - 0.2616055588409225 x[1,3]
   - 0.3029642223536368 x[1,4] - 0.0435023654642223 x[1,5]
   + 0.1411886457717327 x[3,1] + 0.2137788290952099 x[3,2]
   + 0.2616055588409225 x[3,3] + 0.3029642223536368 x[3,4]
   + 0.0435023654642223 x[3,5] >= 0
 findWorstP[3,2]: z - 0.0369603784742756 cashProportion[2]
   + 0.0369603784742756 cashProportion[3] - 0.1411886457717327 x[2,1]
   - 0.2137788290952099 x[2,2] - 0.2616055588409225 x[2,3]
   - 0.3029642223536368 x[2,4] - 0.0435023654642223 x[2,5]
   + 0.1411886457717327 x[3,1] + 0.2137788290952099 x[3,2]
   + 0.2616055588409225 x[3,3] + 0.3029642223536368 x[3,4]
   + 0.0435023654642223 x[3,5] >= 0
 findWorstP[3,4]: z + 0.0369603784742756 cashProportion[3]
   - 0.0369603784742756 cashProportion[4] + 0.1411886457717327 x[3,1]
   + 0.2137788290952099 x[3,2] + 0.2616055588409225 x[3,3]
   + 0.3029642223536368 x[3,4] + 0.0435023654642223 x[3,5]
   - 0.1411886457717327 x[4,1] - 0.2137788290952099 x[4,2]
   - 0.2616055588409225 x[4,3] - 0.3029642223536368 x[4,4]
   - 0.0435023654642223 x[4,5] >= 0
 findWorstP[3,5]: z + 0.0369603784742756 cashProportion[3]
   - 0.0369603784742756 cashProportion[5] + 0.1411886457717327 x[3,1]
   + 0.2137788290952099 x[3,2] + 0.2616055588409225 x[3,3]
   + 0.3029642223536368 x[3,4] + 0.0435023654642223 x[3,5]
   - 0.1411886457717327 x[5,1] - 0.2137788290952099 x[5,2]
   - 0.2616055588409225 x[5,3] - 0.3029642223536368 x[5,4]
   - 0.0435023654642223 x[5,5] >= 0
 findWorstP[3,6]: z + 0.0369603784742756 cashProportion[3]
   - 0.0369603784742756 cashProportion[6] + 0.1411886457717327 x[3,1]
   + 0.2137788290952099 x[3,2] + 0.2616055588409225 x[3,3]
   + 0.3029642223536368 x[3,4] + 0.0435023654642223 x[3,5]
   - 0.1411886457717327 x[6,1] - 0.2137788290952099 x[6,2]
   - 0.2616055588409225 x[6,3] - 0.3029642223536368 x[6,4]
   - 0.0435023654642223 x[6,5] >= 0
 findWorstP[4,1]: z - 0.0515224895666959 cashProportion[1]
   + 0.0515224895666959 cashProportion[4] - 0.0554381987737647 x[1,1]
   - 0.1680663609665619 x[1,2] - 0.121799165335669 x[1,3]
   - 0.1340615178525426 x[1,4] - 0.4691122675047658 x[1,5]
   + 0.0554381987737647 x[4,1] + 0.1680663609665619 x[4,2]
   + 0.121799165335669 x[4,3] + 0.1340615178525426 x[4,4]
   + 0.4691122675047658 x[4,5] >= 0
 findWorstP[4,2]: z - 0.0515224895666959 cashProportion[2]
   + 0.0515224895666959 cashProportion[4] - 0.0554381987737647 x[2,1]
   - 0.1680663609665619 x[2,2] - 0.121799165335669 x[2,3]
   - 0.1340615178525426 x[2,4] - 0.4691122675047658 x[2,5]
   + 0.0554381987737647 x[4,1] + 0.1680663609665619 x[4,2]
   + 0.121799165335669 x[4,3] + 0.1340615178525426 x[4,4]
   + 0.4691122675047658 x[4,5] >= 0
 findWorstP[4,3]: z - 0.0515224895666959 cashProportion[3]
   + 0.0515224895666959 cashProportion[4] - 0.0554381987737647 x[3,1]
   - 0.1680663609665619 x[3,2] - 0.121799165335669 x[3,3]
   - 0.1340615178525426 x[3,4] - 0.4691122675047658 x[3,5]
   + 0.0554381987737647 x[4,1] + 0.1680663609665619 x[4,2]
   + 0.121799165335669 x[4,3] + 0.1340615178525426 x[4,4]
   + 0.4691122675047658 x[4,5] >= 0
 findWorstP[4,5]: z + 0.0515224895666959 cashProportion[4]
   - 0.0515224895666959 cashProportion[5] + 0.0554381987737647 x[4,1]
   + 0.1680663609665619 x[4,2] + 0.121799165335669 x[4,3]
   + 0.1340615178525426 x[4,4] + 0.4691122675047658 x[4,5]
   - 0.0554381987737647 x[5,1] - 0.1680663609665619 x[5,2]
   - 0.121799165335669 x[5,3] - 0.1340615178525426 x[5,4]
   - 0.4691122675047658 x[5,5] >= 0
 findWorstP[4,6]: z + 0.0515224895666959 cashProportion[4]
   - 0.0515224895666959 cashProportion[6] + 0.0554381987737647 x[4,1]
   + 0.1680663609665619 x[4,2] + 0.121799165335669 x[4,3]
   + 0.1340615178525426 x[4,4] + 0.4691122675047658 x[4,5]
   - 0.0554381987737647 x[6,1] - 0.1680663609665619 x[6,2]
   - 0.121799165335669 x[6,3] - 0.1340615178525426 x[6,4]
   - 0.4691122675047658 x[6,5] >= 0
 findWorstP[5,1]: z - 0.0268060581691462 cashProportion[1]
   + 0.0268060581691462 cashProportion[5] - 0.2165393378903632 x[1,1]
   - 0.1869186436134566 x[1,2] - 0.2117678595362552 x[1,3]
   - 0.1693338694544967 x[1,4] - 0.188634231336282 x[1,5]
   + 0.2165393378903632 x[5,1] + 0.1869186436134566 x[5,2]
   + 0.2117678595362552 x[5,3] + 0.1693338694544967 x[5,4]
   + 0.188634231336282 x[5,5] >= 0
 findWorstP[5,2]: z - 0.0268060581691462 cashProportion[2]
   + 0.0268060581691462 cashProportion[5] - 0.2165393378903632 x[2,1]
   - 0.1869186436134566 x[2,2] - 0.2117678595362552 x[2,3]
   - 0.1693338694544967 x[2,4] - 0.188634231336282 x[2,5]
   + 0.2165393378903632 x[5,1] + 0.1869186436134566 x[5,2]
   + 0.2117678595362552 x[5,3] + 0.1693338694544967 x[5,4]
   + 0.188634231336282 x[5,5] >= 0
 findWorstP[5,3]: z - 0.0268060581691462 cashProportion[3]
   + 0.0268060581691462 cashProportion[5] - 0.2165393378903632 x[3,1]
   - 0.1869186436134566 x[3,2] - 0.2117678595362552 x[3,3]
   - 0.1693338694544967 x[3,4] - 0.188634231336282 x[3,5]
   + 0.2165393378903632 x[5,1] + 0.1869186436134566 x[5,2]
   + 0.2117678595362552 x[5,3] + 0.1693338694544967 x[5,4]
   + 0.188634231336282 x[5,5] >= 0
 findWorstP[5,4]: z - 0.0268060581691462 cashProportion[4]
   + 0.0268060581691462 cashProportion[5] - 0.2165393378903632 x[4,1]
   - 0.1869186436134566 x[4,2] - 0.2117678595362552 x[4,3]
   - 0.1693338694544967 x[4,4] - 0.188634231336282 x[4,5]
   + 0.2165393378903632 x[5,1] + 0.1869186436134566 x[5,2]
   + 0.2117678595362552 x[5,3] + 0.1693338694544967 x[5,4]
   + 0.188634231336282 x[5,5] >= 0
 findWorstP[5,6]: z + 0.0268060581691462 cashProportion[5]
   - 0.0268060581691462 cashProportion[6] + 0.2165393378903632 x[5,1]
   + 0.1869186436134566 x[5,2] + 0.2117678595362552 x[5,3]
   + 0.1693338694544967 x[5,4] + 0.188634231336282 x[5,5]
   - 0.2165393378903632 x[6,1] - 0.1869186436134566 x[6,2]
   - 0.2117678595362552 x[6,3] - 0.1693338694544967 x[6,4]
   - 0.188634231336282 x[6,5] >= 0
 findWorstP[6,1]: z - 0.031809651048128 cashProportion[1]
   + 0.031809651048128 cashProportion[6] - 0.1365270222985654 x[1,1]
   - 0.1938798231383402 x[1,2] - 0.160797786048287 x[1,3]
   - 0.1948659223208321 x[1,4] - 0.2821197951458472 x[1,5]
   + 0.1365270222985654 x[6,1] + 0.1938798231383402 x[6,2]
   + 0.160797786048287 x[6,3] + 0.1948659223208321 x[6,4]
   + 0.2821197951458472 x[6,5] >= 0
 findWorstP[6,2]: z - 0.031809651048128 cashProportion[2]
   + 0.031809651048128 cashProportion[6] - 0.1365270222985654 x[2,1]
   - 0.1938798231383402 x[2,2] - 0.160797786048287 x[2,3]
   - 0.1948659223208321 x[2,4] - 0.2821197951458472 x[2,5]
   + 0.1365270222985654 x[6,1] + 0.1938798231383402 x[6,2]
   + 0.160797786048287 x[6,3] + 0.1948659223208321 x[6,4]
   + 0.2821197951458472 x[6,5] >= 0
 findWorstP[6,3]: z - 0.031809651048128 cashProportion[3]
   + 0.031809651048128 cashProportion[6] - 0.1365270222985654 x[3,1]
   - 0.1938798231383402 x[3,2] - 0.160797786048287 x[3,3]
   - 0.1948659223208321 x[3,4] - 0.2821197951458472 x[3,5]
   + 0.1365270222985654 x[6,1] + 0.1938798231383402 x[6,2]
   + 0.160797786048287 x[6,3] + 0.1948659223208321 x[6,4]
   + 0.2821197951458472 x[6,5] >= 0
 findWorstP[6,4]: z - 0.031809651048128 cashProportion[4]
   + 0.031809651048128 cashProportion[6] - 0.1365270222985654 x[4,1]
   - 0.1938798231383402 x[4,2] - 0.160797786048287 x[4,3]
   - 0.1948659223208321 x[4,4] - 0.2821197951458472 x[4,5]
   + 0.1365270222985654 x[6,1] + 0.1938798231383402 x[6,2]
   + 0.160797786048287 x[6,3] + 0.1948659223208321 x[6,4]
   + 0.2821197951458472 x[6,5] >= 0
 findWorstP[6,5]: z - 0.031809651048128 cashProportion[5]
   + 0.031809651048128 cashProportion[6] - 0.1365270222985654 x[5,1]
   - 0.1938798231383402 x[5,2] - 0.160797786048287 x[5,3]
   - 0.1948659223208321 x[5,4] - 0.2821197951458472 x[5,5]
   + 0.1365270222985654 x[6,1] + 0.1938798231383402 x[6,2]
   + 0.160797786048287 x[6,3] + 0.1948659223208321 x[6,4]
   + 0.2821197951458472 x[6,5] >= 0
Bounds
 z <= 1
 -infinity <= cashProportion[1] <= 1
 -infinity <= cashProportion[2] <= 1
 -infinity <= cashProportion[3] <= 1
 -infinity <= cashProportion[4] <= 1
 -infinity <= cashProportion[5] <= 1
 -infinity <= cashProportion[6] <= 1
Binaries
 x[1,1] x[1,2] x[1,3] x[1,4] x[1,5] x[2,1] x[2,2] x[2,3] x[2,4] x[2,5]
 x[3,1] x[3,2] x[3,3] x[3,4] x[3,5] x[4,1] x[4,2] x[4,3] x[4,4] x[4,5]
 x[5,1] x[5,2] x[5,3] x[5,4] x[5,5] x[6,1] x[6,2] x[6,3] x[6,4] x[6,5]
End
