data/mps_files/pEFS/105_1.mps
NAME foo
ROWS
 N  OBJ
 E  allocateEach[1]
 E  allocateEach[2]
 E  allocateEach[3]
 E  allocateEach[4]
 E  allocateEach[5]
 E  allocateAllCash
 G  findWorstP[1,2]
 G  findWorstP[1,3]
 G  findWorstP[1,4]
 G  findWorstP[1,5]
 G  findWorstP[1,6]
 G  findWorstP[2,1]
 G  findWorstP[2,3]
 G  findWorstP[2,4]
 G  findWorstP[2,5]
 G  findWorstP[2,6]
 G  findWorstP[3,1]
 G  findWorstP[3,2]
 G  findWorstP[3,4]
 G  findWorstP[3,5]
 G  findWorstP[3,6]
 G  findWorstP[4,1]
 G  findWorstP[4,2]
 G  findWorstP[4,3]
 G  findWorstP[4,5]
 G  findWorstP[4,6]
 G  findWorstP[5,1]
 G  findWorstP[5,2]
 G  findWorstP[5,3]
 G  findWorstP[5,4]
 G  findWorstP[5,6]
 G  findWorstP[6,1]
 G  findWorstP[6,2]
 G  findWorstP[6,3]
 G  findWorstP[6,4]
 G  findWorstP[6,5]
COLUMNS
    z         OBJ       1
    z         findWorstP[1,2]  1
    z         findWorstP[1,3]  1
    z         findWorstP[1,4]  1
    z         findWorstP[1,5]  1
    z         findWorstP[1,6]  1
    z         findWorstP[2,1]  1
    z         findWorstP[2,3]  1
    z         findWorstP[2,4]  1
    z         findWorstP[2,5]  1
    z         findWorstP[2,6]  1
    z         findWorstP[3,1]  1
    z         findWorstP[3,2]  1
    z         findWorstP[3,4]  1
    z         findWorstP[3,5]  1
    z         findWorstP[3,6]  1
    z         findWorstP[4,1]  1
    z         findWorstP[4,2]  1
    z         findWorstP[4,3]  1
    z         findWorstP[4,5]  1
    z         findWorstP[4,6]  1
    z         findWorstP[5,1]  1
    z         findWorstP[5,2]  1
    z         findWorstP[5,3]  1
    z         findWorstP[5,4]  1
    z         findWorstP[5,6]  1
    z         findWorstP[6,1]  1
    z         findWorstP[6,2]  1
    z         findWorstP[6,3]  1
    z         findWorstP[6,4]  1
    z         findWorstP[6,5]  1
    cashProportion[1]  allocateAllCash  1
    cashProportion[1]  findWorstP[1,2]  6.0994205550472705e-02
    cashProportion[1]  findWorstP[1,3]  6.0994205550472705e-02
    cashProportion[1]  findWorstP[1,4]  6.0994205550472705e-02
    cashProportion[1]  findWorstP[1,5]  6.0994205550472705e-02
    cashProportion[1]  findWorstP[1,6]  6.0994205550472705e-02
    cashProportion[1]  findWorstP[2,1]  -3.9180347137875639e-02
    cashProportion[1]  findWorstP[3,1]  -3.6960378474275572e-02
    cashProportion[1]  findWorstP[4,1]  -5.1522489566695862e-02
    cashProportion[1]  findWorstP[5,1]  -2.6806058169146225e-02
    cashProportion[1]  findWorstP[6,1]  -3.1809651048127996e-02
    cashProportion[2]  allocateAllCash  1
    cashProportion[2]  findWorstP[1,2]  -6.0994205550472705e-02
    cashProportion[2]  findWorstP[2,1]  3.9180347137875639e-02
    cashProportion[2]  findWorstP[2,3]  3.9180347137875639e-02
    cashProportion[2]  findWorstP[2,4]  3.9180347137875639e-02
    cashProportion[2]  findWorstP[2,5]  3.9180347137875639e-02
    cashProportion[2]  findWorstP[2,6]  3.9180347137875639e-02
    cashProportion[2]  findWorstP[3,2]  -3.6960378474275572e-02
    cashProportion[2]  findWorstP[4,2]  -5.1522489566695862e-02
    cashProportion[2]  findWorstP[5,2]  -2.6806058169146225e-02
    cashProportion[2]  findWorstP[6,2]  -3.1809651048127996e-02
    cashProportion[3]  allocateAllCash  1
    cashProportion[3]  findWorstP[1,3]  -6.0994205550472705e-02
    cashProportion[3]  findWorstP[2,3]  -3.9180347137875639e-02
    cashProportion[3]  findWorstP[3,1]  3.6960378474275572e-02
    cashProportion[3]  findWorstP[3,2]  3.6960378474275572e-02
    cashProportion[3]  findWorstP[3,4]  3.6960378474275572e-02
    cashProportion[3]  findWorstP[3,5]  3.6960378474275572e-02
    cashProportion[3]  findWorstP[3,6]  3.6960378474275572e-02
    cashProportion[3]  findWorstP[4,3]  -5.1522489566695862e-02
    cashProportion[3]  findWorstP[5,3]  -2.6806058169146225e-02
    cashProportion[3]  findWorstP[6,3]  -3.1809651048127996e-02
    cashProportion[4]  allocateAllCash  1
    cashProportion[4]  findWorstP[1,4]  -6.0994205550472705e-02
    cashProportion[4]  findWorstP[2,4]  -3.9180347137875639e-02
    cashProportion[4]  findWorstP[3,4]  -3.6960378474275572e-02
    cashProportion[4]  findWorstP[4,1]  5.1522489566695862e-02
    cashProportion[4]  findWorstP[4,2]  5.1522489566695862e-02
    cashProportion[4]  findWorstP[4,3]  5.1522489566695862e-02
    cashProportion[4]  findWorstP[4,5]  5.1522489566695862e-02
    cashProportion[4]  findWorstP[4,6]  5.1522489566695862e-02
    cashProportion[4]  findWorstP[5,4]  -2.6806058169146225e-02
    cashProportion[4]  findWorstP[6,4]  -3.1809651048127996e-02
    cashProportion[5]  allocateAllCash  1
    cashProportion[5]  findWorstP[1,5]  -6.0994205550472705e-02
    cashProportion[5]  findWorstP[2,5]  -3.9180347137875639e-02
    cashProportion[5]  findWorstP[3,5]  -3.6960378474275572e-02
    cashProportion[5]  findWorstP[4,5]  -5.1522489566695862e-02
    cashProportion[5]  findWorstP[5,1]  2.6806058169146225e-02
    cashProportion[5]  findWorstP[5,2]  2.6806058169146225e-02
    cashProportion[5]  findWorstP[5,3]  2.6806058169146225e-02
    cashProportion[5]  findWorstP[5,4]  2.6806058169146225e-02
    cashProportion[5]  findWorstP[5,6]  2.6806058169146225e-02
    cashProportion[5]  findWorstP[6,5]  -3.1809651048127996e-02
    cashProportion[6]  allocateAllCash  1
    cashProportion[6]  findWorstP[1,6]  -6.0994205550472705e-02
    cashProportion[6]  findWorstP[2,6]  -3.9180347137875639e-02
    cashProportion[6]  findWorstP[3,6]  -3.6960378474275572e-02
    cashProportion[6]  findWorstP[4,6]  -5.1522489566695862e-02
    cashProportion[6]  findWorstP[5,6]  -2.6806058169146225e-02
    cashProportion[6]  findWorstP[6,1]  3.1809651048127996e-02
    cashProportion[6]  findWorstP[6,2]  3.1809651048127996e-02
    cashProportion[6]  findWorstP[6,3]  3.1809651048127996e-02
    cashProportion[6]  findWorstP[6,4]  3.1809651048127996e-02
    cashProportion[6]  findWorstP[6,5]  3.1809651048127996e-02
    MARKER    'MARKER'                 'INTORG'
    x[1,1]    allocateEach[1]  1
    x[1,1]    findWorstP[1,2]  1.5187557182067702e-02
    x[1,1]    findWorstP[1,3]  1.5187557182067702e-02
    x[1,1]    findWorstP[1,4]  1.5187557182067702e-02
    x[1,1]    findWorstP[1,5]  1.5187557182067702e-02
    x[1,1]    findWorstP[1,6]  1.5187557182067702e-02
    x[1,1]    findWorstP[2,1]  -0.0911726677898366
    x[1,1]    findWorstP[3,1]  -1.4118864577173268e-01
    x[1,1]    findWorstP[4,1]  -5.5438198773764748e-02
    x[1,1]    findWorstP[5,1]  -2.1653933789036320e-01
    x[1,1]    findWorstP[6,1]  -1.3652702229856536e-01
    x[1,2]    allocateEach[2]  1
    x[1,2]    findWorstP[1,2]  3.0253125953034460e-01
    x[1,2]    findWorstP[1,3]  3.0253125953034460e-01
    x[1,2]    findWorstP[1,4]  3.0253125953034460e-01
    x[1,2]    findWorstP[1,5]  3.0253125953034460e-01
    x[1,2]    findWorstP[1,6]  3.0253125953034460e-01
    x[1,2]    findWorstP[2,1]  -3.3467852525173369e-01
    x[1,2]    findWorstP[3,1]  -2.1377882909520990e-01
    x[1,2]    findWorstP[4,1]  -1.6806636096656188e-01
    x[1,2]    findWorstP[5,1]  -1.8691864361345664e-01
    x[1,2]    findWorstP[6,1]  -1.9387982313834015e-01
    x[1,3]    allocateEach[3]  1
    x[1,3]    findWorstP[1,2]  7.5693809088136624e-02
    x[1,3]    findWorstP[1,3]  7.5693809088136624e-02
    x[1,3]    findWorstP[1,4]  7.5693809088136624e-02
    x[1,3]    findWorstP[1,5]  7.5693809088136624e-02
    x[1,3]    findWorstP[1,6]  7.5693809088136624e-02
    x[1,3]    findWorstP[2,1]  -2.6368373623790305e-02
    x[1,3]    findWorstP[3,1]  -2.6160555884092246e-01
    x[1,3]    findWorstP[4,1]  -1.2179916533566902e-01
    x[1,3]    findWorstP[5,1]  -2.1176785953625518e-01
    x[1,3]    findWorstP[6,1]  -0.160797786048287
    x[1,4]    allocateEach[4]  1
    x[1,4]    findWorstP[1,2]  2.1817627325404088e-01
    x[1,4]    findWorstP[1,3]  2.1817627325404088e-01
    x[1,4]    findWorstP[1,4]  2.1817627325404088e-01
    x[1,4]    findWorstP[1,5]  2.1817627325404088e-01
    x[1,4]    findWorstP[1,6]  2.1817627325404088e-01
    x[1,4]    findWorstP[2,1]  -2.6219488304666377e-01
    x[1,4]    findWorstP[3,1]  -3.0296422235363685e-01
    x[1,4]    findWorstP[4,1]  -1.3406151785254264e-01
    x[1,4]    findWorstP[5,1]  -1.6933386945449672e-01
    x[1,4]    findWorstP[6,1]  -1.9486592232083211e-01
    x[1,5]    allocateEach[5]  1
    x[1,5]    findWorstP[1,2]  3.2741689539493751e-01
    x[1,5]    findWorstP[1,3]  3.2741689539493751e-01
    x[1,5]    findWorstP[1,4]  3.2741689539493751e-01
    x[1,5]    findWorstP[1,5]  3.2741689539493751e-01
    x[1,5]    findWorstP[1,6]  3.2741689539493751e-01
    x[1,5]    findWorstP[2,1]  -2.4640520315009989e-01
    x[1,5]    findWorstP[3,1]  -4.3502365464222342e-02
    x[1,5]    findWorstP[4,1]  -4.6911226750476581e-01
    x[1,5]    findWorstP[5,1]  -0.188634231336282
    x[1,5]    findWorstP[6,1]  -2.8211979514584723e-01
    x[2,1]    allocateEach[1]  1
    x[2,1]    findWorstP[1,2]  -1.5187557182067702e-02
    x[2,1]    findWorstP[2,1]  0.0911726677898366
    x[2,1]    findWorstP[2,3]  0.0911726677898366
    x[2,1]    findWorstP[2,4]  0.0911726677898366
    x[2,1]    findWorstP[2,5]  0.0911726677898366
    x[2,1]    findWorstP[2,6]  0.0911726677898366
    x[2,1]    findWorstP[3,2]  -1.4118864577173268e-01
    x[2,1]    findWorstP[4,2]  -5.5438198773764748e-02
    x[2,1]    findWorstP[5,2]  -2.1653933789036320e-01
    x[2,1]    findWorstP[6,2]  -1.3652702229856536e-01
    x[2,2]    allocateEach[2]  1
    x[2,2]    findWorstP[1,2]  -3.0253125953034460e-01
    x[2,2]    findWorstP[2,1]  3.3467852525173369e-01
    x[2,2]    findWorstP[2,3]  3.3467852525173369e-01
    x[2,2]    findWorstP[2,4]  3.3467852525173369e-01
    x[2,2]    findWorstP[2,5]  3.3467852525173369e-01
    x[2,2]    findWorstP[2,6]  3.3467852525173369e-01
    x[2,2]    findWorstP[3,2]  -2.1377882909520990e-01
    x[2,2]    findWorstP[4,2]  -1.6806636096656188e-01
    x[2,2]    findWorstP[5,2]  -1.8691864361345664e-01
    x[2,2]    findWorstP[6,2]  -1.9387982313834015e-01
    x[2,3]    allocateEach[3]  1
    x[2,3]    findWorstP[1,2]  -7.5693809088136624e-02
    x[2,3]    findWorstP[2,1]  2.6368373623790305e-02
    x[2,3]    findWorstP[2,3]  2.6368373623790305e-02
    x[2,3]    findWorstP[2,4]  2.6368373623790305e-02
    x[2,3]    findWorstP[2,5]  2.6368373623790305e-02
    x[2,3]    findWorstP[2,6]  2.6368373623790305e-02
    x[2,3]    findWorstP[3,2]  -2.6160555884092246e-01
    x[2,3]    findWorstP[4,2]  -1.2179916533566902e-01
    x[2,3]    findWorstP[5,2]  -2.1176785953625518e-01
    x[2,3]    findWorstP[6,2]  -0.160797786048287
    x[2,4]    allocateEach[4]  1
    x[2,4]    findWorstP[1,2]  -2.1817627325404088e-01
    x[2,4]    findWorstP[2,1]  2.6219488304666377e-01
    x[2,4]    findWorstP[2,3]  2.6219488304666377e-01
    x[2,4]    findWorstP[2,4]  2.6219488304666377e-01
    x[2,4]    findWorstP[2,5]  2.6219488304666377e-01
    x[2,4]    findWorstP[2,6]  2.6219488304666377e-01
    x[2,4]    findWorstP[3,2]  -3.0296422235363685e-01
    x[2,4]    findWorstP[4,2]  -1.3406151785254264e-01
    x[2,4]    findWorstP[5,2]  -1.6933386945449672e-01
    x[2,4]    findWorstP[6,2]  -1.9486592232083211e-01
    x[2,5]    allocateEach[5]  1
    x[2,5]    findWorstP[1,2]  -3.2741689539493751e-01
    x[2,5]    findWorstP[2,1]  2.4640520315009989e-01
    x[2,5]    findWorstP[2,3]  2.4640520315009989e-01
    x[2,5]    findWorstP[2,4]  2.4640520315009989e-01
    x[2,5]    findWorstP[2,5]  2.4640520315009989e-01
    x[2,5]    findWorstP[2,6]  2.4640520315009989e-01
    x[2,5]    findWorstP[3,2]  -4.3502365464222342e-02
    x[2,5]    findWorstP[4,2]  -4.6911226750476581e-01
    x[2,5]    findWorstP[5,2]  -0.188634231336282
    x[2,5]    findWorstP[6,2]  -2.8211979514584723e-01
    x[3,1]    allocateEach[1]  1
    x[3,1]    findWorstP[1,3]  -1.5187557182067702e-02
    x[3,1]    findWorstP[2,3]  -0.0911726677898366
    x[3,1]    findWorstP[3,1]  1.4118864577173268e-01
    x[3,1]    findWorstP[3,2]  1.4118864577173268e-01
    x[3,1]    findWorstP[3,4]  1.4118864577173268e-01
    x[3,1]    findWorstP[3,5]  1.4118864577173268e-01
    x[3,1]    findWorstP[3,6]  1.4118864577173268e-01
    x[3,1]    findWorstP[4,3]  -5.5438198773764748e-02
    x[3,1]    findWorstP[5,3]  -2.1653933789036320e-01
    x[3,1]    findWorstP[6,3]  -1.3652702229856536e-01
    x[3,2]    allocateEach[2]  1
    x[3,2]    findWorstP[1,3]  -3.0253125953034460e-01
    x[3,2]    findWorstP[2,3]  -3.3467852525173369e-01
    x[3,2]    findWorstP[3,1]  2.1377882909520990e-01
    x[3,2]    findWorstP[3,2]  2.1377882909520990e-01
    x[3,2]    findWorstP[3,4]  2.1377882909520990e-01
    x[3,2]    findWorstP[3,5]  2.1377882909520990e-01
    x[3,2]    findWorstP[3,6]  2.1377882909520990e-01
    x[3,2]    findWorstP[4,3]  -1.6806636096656188e-01
    x[3,2]    findWorstP[5,3]  -1.8691864361345664e-01
    x[3,2]    findWorstP[6,3]  -1.9387982313834015e-01
    x[3,3]    allocateEach[3]  1
    x[3,3]    findWorstP[1,3]  -7.5693809088136624e-02
    x[3,3]    findWorstP[2,3]  -2.6368373623790305e-02
    x[3,3]    findWorstP[3,1]  2.6160555884092246e-01
    x[3,3]    findWorstP[3,2]  2.6160555884092246e-01
    x[3,3]    findWorstP[3,4]  2.6160555884092246e-01
    x[3,3]    findWorstP[3,5]  2.6160555884092246e-01
    x[3,3]    findWorstP[3,6]  2.6160555884092246e-01
    x[3,3]    findWorstP[4,3]  -1.2179916533566902e-01
    x[3,3]    findWorstP[5,3]  -2.1176785953625518e-01
    x[3,3]    findWorstP[6,3]  -0.160797786048287
    x[3,4]    allocateEach[4]  1
    x[3,4]    findWorstP[1,3]  -2.1817627325404088e-01
    x[3,4]    findWorstP[2,3]  -2.6219488304666377e-01
    x[3,4]    findWorstP[3,1]  3.0296422235363685e-01
    x[3,4]    findWorstP[3,2]  3.0296422235363685e-01
    x[3,4]    findWorstP[3,4]  3.0296422235363685e-01
    x[3,4]    findWorstP[3,5]  3.0296422235363685e-01
    x[3,4]    findWorstP[3,6]  3.0296422235363685e-01
    x[3,4]    findWorstP[4,3]  -1.3406151785254264e-01
    x[3,4]    findWorstP[5,3]  -1.6933386945449672e-01
    x[3,4]    findWorstP[6,3]  -1.9486592232083211e-01
    x[3,5]    allocateEach[5]  1
    x[3,5]    findWorstP[1,3]  -3.2741689539493751e-01
    x[3,5]    findWorstP[2,3]  -2.4640520315009989e-01
    x[3,5]    findWorstP[3,1]  4.3502365464222342e-02
    x[3,5]    findWorstP[3,2]  4.3502365464222342e-02
    x[3,5]    findWorstP[3,4]  4.3502365464222342e-02
    x[3,5]    findWorstP[3,5]  4.3502365464222342e-02
    x[3,5]    findWorstP[3,6]  4.3502365464222342e-02
    x[3,5]    findWorstP[4,3]  -4.6911226750476581e-01
    x[3,5]    findWorstP[5,3]  -0.188634231336282
    x[3,5]    findWorstP[6,3]  -2.8211979514584723e-01
    x[4,1]    allocateEach[1]  1
    x[4,1]    findWorstP[1,4]  -1.5187557182067702e-02
    x[4,1]    findWorstP[2,4]  -0.0911726677898366
    x[4,1]    findWorstP[3,4]  -1.4118864577173268e-01
    x[4,1]    findWorstP[4,1]  5.5438198773764748e-02
    x[4,1]    findWorstP[4,2]  5.5438198773764748e-02
    x[4,1]    findWorstP[4,3]  5.5438198773764748e-02
    x[4,1]    findWorstP[4,5]  5.5438198773764748e-02
    x[4,1]    findWorstP[4,6]  5.5438198773764748e-02
    x[4,1]    findWorstP[5,4]  -2.1653933789036320e-01
    x[4,1]    findWorstP[6,4]  -1.3652702229856536e-01
    x[4,2]    allocateEach[2]  1
    x[4,2]    findWorstP[1,4]  -3.0253125953034460e-01
    x[4,2]    findWorstP[2,4]  -3.3467852525173369e-01
    x[4,2]    findWorstP[3,4]  -2.1377882909520990e-01
    x[4,2]    findWorstP[4,1]  1.6806636096656188e-01
    x[4,2]    findWorstP[4,2]  1.6806636096656188e-01
    x[4,2]    findWorstP[4,3]  1.6806636096656188e-01
    x[4,2]    findWorstP[4,5]  1.6806636096656188e-01
    x[4,2]    findWorstP[4,6]  1.6806636096656188e-01
    x[4,2]    findWorstP[5,4]  -1.8691864361345664e-01
    x[4,2]    findWorstP[6,4]  -1.9387982313834015e-01
    x[4,3]    allocateEach[3]  1
    x[4,3]    findWorstP[1,4]  -7.5693809088136624e-02
    x[4,3]    findWorstP[2,4]  -2.6368373623790305e-02
    x[4,3]    findWorstP[3,4]  -2.6160555884092246e-01
    x[4,3]    findWorstP[4,1]  1.2179916533566902e-01
    x[4,3]    findWorstP[4,2]  1.2179916533566902e-01
    x[4,3]    findWorstP[4,3]  1.2179916533566902e-01
    x[4,3]    findWorstP[4,5]  1.2179916533566902e-01
    x[4,3]    findWorstP[4,6]  1.2179916533566902e-01
    x[4,3]    findWorstP[5,4]  -2.1176785953625518e-01
    x[4,3]    findWorstP[6,4]  -0.160797786048287
    x[4,4]    allocateEach[4]  1
    x[4,4]    findWorstP[1,4]  -2.1817627325404088e-01
    x[4,4]    findWorstP[2,4]  -2.6219488304666377e-01
    x[4,4]    findWorstP[3,4]  -3.0296422235363685e-01
    x[4,4]    findWorstP[4,1]  1.3406151785254264e-01
    x[4,4]    findWorstP[4,2]  1.3406151785254264e-01
    x[4,4]    findWorstP[4,3]  1.3406151785254264e-01
    x[4,4]    findWorstP[4,5]  1.3406151785254264e-01
    x[4,4]    findWorstP[4,6]  1.3406151785254264e-01
    x[4,4]    findWorstP[5,4]  -1.6933386945449672e-01
    x[4,4]    findWorstP[6,4]  -1.9486592232083211e-01
    x[4,5]    allocateEach[5]  1
    x[4,5]    findWorstP[1,4]  -3.2741689539493751e-01
    x[4,5]    findWorstP[2,4]  -2.4640520315009989e-01
    x[4,5]    findWorstP[3,4]  -4.3502365464222342e-02
    x[4,5]    findWorstP[4,1]  4.6911226750476581e-01
    x[4,5]    findWorstP[4,2]  4.6911226750476581e-01
    x[4,5]    findWorstP[4,3]  4.6911226750476581e-01
    x[4,5]    findWorstP[4,5]  4.6911226750476581e-01
    x[4,5]    findWorstP[4,6]  4.6911226750476581e-01
    x[4,5]    findWorstP[5,4]  -0.188634231336282
    x[4,5]    findWorstP[6,4]  -2.8211979514584723e-01
    x[5,1]    allocateEach[1]  1
    x[5,1]    findWorstP[1,5]  -1.5187557182067702e-02
    x[5,1]    findWorstP[2,5]  -0.0911726677898366
    x[5,1]    findWorstP[3,5]  -1.4118864577173268e-01
    x[5,1]    findWorstP[4,5]  -5.5438198773764748e-02
    x[5,1]    findWorstP[5,1]  2.1653933789036320e-01
    x[5,1]    findWorstP[5,2]  2.1653933789036320e-01
    x[5,1]    findWorstP[5,3]  2.1653933789036320e-01
    x[5,1]    findWorstP[5,4]  2.1653933789036320e-01
    x[5,1]    findWorstP[5,6]  2.1653933789036320e-01
    x[5,1]    findWorstP[6,5]  -1.3652702229856536e-01
    x[5,2]    allocateEach[2]  1
    x[5,2]    findWorstP[1,5]  -3.0253125953034460e-01
    x[5,2]    findWorstP[2,5]  -3.3467852525173369e-01
    x[5,2]    findWorstP[3,5]  -2.1377882909520990e-01
    x[5,2]    findWorstP[4,5]  -1.6806636096656188e-01
    x[5,2]    findWorstP[5,1]  1.8691864361345664e-01
    x[5,2]    findWorstP[5,2]  1.8691864361345664e-01
    x[5,2]    findWorstP[5,3]  1.8691864361345664e-01
    x[5,2]    findWorstP[5,4]  1.8691864361345664e-01
    x[5,2]    findWorstP[5,6]  1.8691864361345664e-01
    x[5,2]    findWorstP[6,5]  -1.9387982313834015e-01
    x[5,3]    allocateEach[3]  1
    x[5,3]    findWorstP[1,5]  -7.5693809088136624e-02
    x[5,3]    findWorstP[2,5]  -2.6368373623790305e-02
    x[5,3]    findWorstP[3,5]  -2.6160555884092246e-01
    x[5,3]    findWorstP[4,5]  -1.2179916533566902e-01
    x[5,3]    findWorstP[5,1]  2.1176785953625518e-01
    x[5,3]    findWorstP[5,2]  2.1176785953625518e-01
    x[5,3]    findWorstP[5,3]  2.1176785953625518e-01
    x[5,3]    findWorstP[5,4]  2.1176785953625518e-01
    x[5,3]    findWorstP[5,6]  2.1176785953625518e-01
    x[5,3]    findWorstP[6,5]  -0.160797786048287
    x[5,4]    allocateEach[4]  1
    x[5,4]    findWorstP[1,5]  -2.1817627325404088e-01
    x[5,4]    findWorstP[2,5]  -2.6219488304666377e-01
    x[5,4]    findWorstP[3,5]  -3.0296422235363685e-01
    x[5,4]    findWorstP[4,5]  -1.3406151785254264e-01
    x[5,4]    findWorstP[5,1]  1.6933386945449672e-01
    x[5,4]    findWorstP[5,2]  1.6933386945449672e-01
    x[5,4]    findWorstP[5,3]  1.6933386945449672e-01
    x[5,4]    findWorstP[5,4]  1.6933386945449672e-01
    x[5,4]    findWorstP[5,6]  1.6933386945449672e-01
    x[5,4]    findWorstP[6,5]  -1.9486592232083211e-01
    x[5,5]    allocateEach[5]  1
    x[5,5]    findWorstP[1,5]  -3.2741689539493751e-01
    x[5,5]    findWorstP[2,5]  -2.4640520315009989e-01
    x[5,5]    findWorstP[3,5]  -4.3502365464222342e-02
    x[5,5]    findWorstP[4,5]  -4.6911226750476581e-01
    x[5,5]    findWorstP[5,1]  0.188634231336282
    x[5,5]    findWorstP[5,2]  0.188634231336282
    x[5,5]    findWorstP[5,3]  0.188634231336282
    x[5,5]    findWorstP[5,4]  0.188634231336282
    x[5,5]    findWorstP[5,6]  0.188634231336282
    x[5,5]    findWorstP[6,5]  -2.8211979514584723e-01
    x[6,1]    allocateEach[1]  1
    x[6,1]    findWorstP[1,6]  -1.5187557182067702e-02
    x[6,1]    findWorstP[2,6]  -0.0911726677898366
    x[6,1]    findWorstP[3,6]  -1.4118864577173268e-01
    x[6,1]    findWorstP[4,6]  -5.5438198773764748e-02
    x[6,1]    findWorstP[5,6]  -2.1653933789036320e-01
    x[6,1]    findWorstP[6,1]  1.3652702229856536e-01
    x[6,1]    findWorstP[6,2]  1.3652702229856536e-01
    x[6,1]    findWorstP[6,3]  1.3652702229856536e-01
    x[6,1]    findWorstP[6,4]  1.3652702229856536e-01
    x[6,1]    findWorstP[6,5]  1.3652702229856536e-01
    x[6,2]    allocateEach[2]  1
    x[6,2]    findWorstP[1,6]  -3.0253125953034460e-01
    x[6,2]    findWorstP[2,6]  -3.3467852525173369e-01
    x[6,2]    findWorstP[3,6]  -2.1377882909520990e-01
    x[6,2]    findWorstP[4,6]  -1.6806636096656188e-01
    x[6,2]    findWorstP[5,6]  -1.8691864361345664e-01
    x[6,2]    findWorstP[6,1]  1.9387982313834015e-01
    x[6,2]    findWorstP[6,2]  1.9387982313834015e-01
    x[6,2]    findWorstP[6,3]  1.9387982313834015e-01
    x[6,2]    findWorstP[6,4]  1.9387982313834015e-01
    x[6,2]    findWorstP[6,5]  1.9387982313834015e-01
    x[6,3]    allocateEach[3]  1
    x[6,3]    findWorstP[1,6]  -7.5693809088136624e-02
    x[6,3]    findWorstP[2,6]  -2.6368373623790305e-02
    x[6,3]    findWorstP[3,6]  -2.6160555884092246e-01
    x[6,3]    findWorstP[4,6]  -1.2179916533566902e-01
    x[6,3]    findWorstP[5,6]  -2.1176785953625518e-01
    x[6,3]    findWorstP[6,1]  0.160797786048287
    x[6,3]    findWorstP[6,2]  0.160797786048287
    x[6,3]    findWorstP[6,3]  0.160797786048287
    x[6,3]    findWorstP[6,4]  0.160797786048287
    x[6,3]    findWorstP[6,5]  0.160797786048287
    x[6,4]    allocateEach[4]  1
    x[6,4]    findWorstP[1,6]  -2.1817627325404088e-01
    x[6,4]    findWorstP[2,6]  -2.6219488304666377e-01
    x[6,4]    findWorstP[3,6]  -3.0296422235363685e-01
    x[6,4]    findWorstP[4,6]  -1.3406151785254264e-01
    x[6,4]    findWorstP[5,6]  -1.6933386945449672e-01
    x[6,4]    findWorstP[6,1]  1.9486592232083211e-01
    x[6,4]    findWorstP[6,2]  1.9486592232083211e-01
    x[6,4]    findWorstP[6,3]  1.9486592232083211e-01
    x[6,4]    findWorstP[6,4]  1.9486592232083211e-01
    x[6,4]    findWorstP[6,5]  1.9486592232083211e-01
    x[6,5]    allocateEach[5]  1
    x[6,5]    findWorstP[1,6]  -3.2741689539493751e-01
    x[6,5]    findWorstP[2,6]  -2.4640520315009989e-01
    x[6,5]    findWorstP[3,6]  -4.3502365464222342e-02
    x[6,5]    findWorstP[4,6]  -4.6911226750476581e-01
    x[6,5]    findWorstP[5,6]  -0.188634231336282
    x[6,5]    findWorstP[6,1]  2.8211979514584723e-01
    x[6,5]    findWorstP[6,2]  2.8211979514584723e-01
    x[6,5]    findWorstP[6,3]  2.8211979514584723e-01
    x[6,5]    findWorstP[6,4]  2.8211979514584723e-01
    x[6,5]    findWorstP[6,5]  2.8211979514584723e-01
    MARKER    'MARKER'                 'INTEND'
RHS
    RHS1      allocateEach[1]  1
    RHS1      allocateEach[2]  1
    RHS1      allocateEach[3]  1
    RHS1      allocateEach[4]  1
    RHS1      allocateEach[5]  1
    RHS1      allocateAllCash  1
BOUNDS
 UP BND1      z         1
 MI BND1      cashProportion[1]
 UP BND1      cashProportion[1]  1
 MI BND1      cashProportion[2]
 UP BND1      cashProportion[2]  1
 MI BND1      cashProportion[3]
 UP BND1      cashProportion[3]  1
 MI BND1      cashProportion[4]
 UP BND1      cashProportion[4]  1
 MI BND1      cashProportion[5]
 UP BND1      cashProportion[5]  1
 MI BND1      cashProportion[6]
 UP BND1      cashProportion[6]  1
 BV BND1      x[1,1]  
 BV BND1      x[1,2]  
 BV BND1      x[1,3]  
 BV BND1      x[1,4]  
 BV BND1      x[1,5]  
 BV BND1      x[2,1]  
 BV BND1      x[2,2]  
 BV BND1      x[2,3]  
 BV BND1      x[2,4]  
 BV BND1      x[2,5]  
 BV BND1      x[3,1]  
 BV BND1      x[3,2]  
 BV BND1      x[3,3]  
 BV BND1      x[3,4]  
 BV BND1      x[3,5]  
 BV BND1      x[4,1]  
 BV BND1      x[4,2]  
 BV BND1      x[4,3]  
 BV BND1      x[4,4]  
 BV BND1      x[4,5]  
 BV BND1      x[5,1]  
 BV BND1      x[5,2]  
 BV BND1      x[5,3]  
 BV BND1      x[5,4]  
 BV BND1      x[5,5]  
 BV BND1      x[6,1]  
 BV BND1      x[6,2]  
 BV BND1      x[6,3]  
 BV BND1      x[6,4]  
 BV BND1      x[6,5]  
ENDATA
